param NumStages := 2 ;

param NumResources := 2 ;

param FixedCost :=
1    1    8074.53262622
1    2    7358.15775832
;

param MarginalCost :=
1    1    760.784712095
1    2    520.333733044
;

param Demand :=
1    89.6977156182
;

